NAME          
ROWS
 N  OBJ
 L  c1
COLUMNS
    MARKER    'MARKER'                 'INTORG'
    x[1]      c1        757
    x[1]      OBJ       -867
    x[2]      c1        104
    x[2]      OBJ       -212
    x[3]      c1        553
    x[3]      OBJ       -614
    x[4]      c1        45
    x[4]      OBJ       -328
    x[5]      c1        191
    x[5]      OBJ       -575
    x[6]      c1        116
    x[6]      OBJ       -965
    x[7]      c1        119
    x[7]      OBJ       -926
    x[8]      c1        130
    x[8]      OBJ       -282
    x[9]      c1        947
    x[9]      OBJ       -981
    x[10]     c1        368
    x[10]     OBJ       -1
RHS
    rhs       c1        1665
RANGES
BOUNDS
 LO bounds    x[1]      0
 PL bounds    x[1]
 LO bounds    x[2]      0
 PL bounds    x[2]
 LO bounds    x[3]      0
 PL bounds    x[3]
 LO bounds    x[4]      0
 PL bounds    x[4]
 LO bounds    x[5]      0
 PL bounds    x[5]
 LO bounds    x[6]      0
 PL bounds    x[6]
 LO bounds    x[7]      0
 PL bounds    x[7]
 LO bounds    x[8]      0
 PL bounds    x[8]
 LO bounds    x[9]      0
 PL bounds    x[9]
 LO bounds    x[10]     0
 PL bounds    x[10]
ENDATA
